SECTION Graph
Nodes 80
Edges 79

E 1 78 294
E 2 31 289
E 2 53 294
E 3 19 293
E 3 44 291
E 3 48 293
E 4 6 292
E 4 19 293
E 5 52 289
E 6 26 294
E 6 56 292
E 6 76 290
E 7 21 289
E 7 27 292
E 7 61 284
E 8 50 296
E 9 54 292
E 9 75 294
E 10 11 296
E 10 18 292
E 10 69 287
E 12 66 295
E 13 54 295
E 14 17 292
E 14 41 287
E 14 63 293
E 14 72 294
E 15 61 294
E 16 74 293
E 17 25 292
E 18 44 287
E 19 34 287
E 20 67 293
E 21 51 293
E 22 70 288
E 23 38 293
E 23 52 294
E 24 63 295
E 27 37 294
E 27 76 291
E 28 66 294
E 29 58 294
E 29 59 295
E 30 34 294
E 32 46 289
E 32 49 288
E 33 58 296
E 34 43 291
E 34 80 293
E 35 47 292
E 36 52 292
E 36 60 294
E 36 73 294
E 36 74 292
E 38 53 288
E 39 78 295
E 40 77 290
E 40 79 293
E 41 66 290
E 42 67 293
E 43 65 290
E 43 77 293
E 43 78 295
E 44 63 291
E 44 70 291
E 45 55 294
E 45 60 290
E 45 71 294
E 46 54 286
E 47 55 295
E 50 58 292
E 51 54 291
E 52 77 290
E 54 64 293
E 57 72 293
E 58 80 290
E 62 79 291
E 63 67 289
E 68 73 290
END
SECTION Terminals
T 1
T 2
T 3
T 4
T 5
T 6
T 7
T 8
T 9
T 10
T 11
T 12
T 13
T 14
T 15
T 16
T 17
T 18
T 19
T 20
T 21
T 22
T 23
T 24
T 25
T 26
T 27
T 28
T 29
T 30
T 31
T 32
T 33
T 34
T 35
T 36
T 37
T 38
T 39
T 40
T 41
T 42
T 43
T 44
T 45
T 46
T 47
T 48
T 49
T 50
T 51
T 52
T 53
T 54
T 55
T 56
T 57
T 58
T 59
T 60
T 61
T 62
T 63
T 64
T 65
T 66
T 67
T 68
T 69
T 70
T 71
T 72
T 73
T 74
T 75
T 76
T 77
T 78
T 79
T 80
END
SECTION Cost
23061
END
